
n_res = 4;
rcap = [30, 29, 270, 254];
rtype = [1, 1, 2, 2];
n_tasks = 50;
modes =  [{1, 2, 3}, {4, 5, 6}, {7, 8, 9}, {10, 11, 12}, {13, 14, 15}, {16, 17, 18}, {19, 20, 21}, {22, 23, 24}, {25, 26, 27}, {28, 29, 30}, {31, 32, 33}, {34, 35, 36}, {37, 38, 39}, {40, 41, 42}, {43, 44, 45}, {46, 47, 48}, {49, 50, 51}, {52, 53, 54}, {55, 56, 57}, {58, 59, 60}, {61, 62, 63}, {64, 65, 66}, {67, 68, 69}, {70, 71, 72}, {73, 74, 75}, {76, 77, 78}, {79, 80, 81}, {82, 83, 84}, {85, 86, 87}, {88, 89, 90}, {91, 92, 93}, {94, 95, 96}, {97, 98, 99}, {100, 101, 102}, {103, 104, 105}, {106, 107, 108}, {109, 110, 111}, {112, 113, 114}, {115, 116, 117}, {118, 119, 120}, {121, 122, 123}, {124, 125, 126}, {127, 128, 129}, {130, 131, 132}, {133, 134, 135}, {136, 137, 138}, {139, 140, 141}, {142, 143, 144}, {145, 146, 147}, {148, 149, 150}];
succ =  [{25, 23, 21, 20, 18, 10, 9}, {30, 27, 25, 22, 18, 17, 16}, {32, 31, 25, 23, 22, 18, 16}, {38, 28, 27, 26, 25, 24, 23, 17}, {28, 25, 22, 20, 17, 16}, {28, 27, 25, 20, 17, 16}, {32, 31, 27, 25, 18, 16}, {33, 28, 27, 25, 22, 20, 16}, {28, 17, 16}, {33, 30, 27, 22, 16}, {39, 30, 26, 17}, {41, 38, 29, 28, 27, 25, 24}, {41, 40, 39, 38, 33, 30, 27, 24}, {38, 37, 33, 32, 31, 27, 25}, {50, 40, 38, 37, 36, 33, 31, 29, 28}, {41, 39, 38, 34, 29, 26, 24}, {50, 48, 47, 35, 33, 32, 31, 29}, {50, 40, 38, 37, 35, 33, 28}, {48, 40, 36, 33, 31, 29, 28}, {50, 38, 35, 34, 29, 26}, {48, 41, 40, 29, 24}, {50, 40, 38, 37, 35, 29}, {35, 34, 30, 29}, {50, 46, 44, 37, 35}, {47, 46, 40, 35, 34}, {49, 46, 43, 42, 40, 37}, {50, 49, 48, 45, 44, 42}, {47, 45, 43, 39}, {49, 46, 44, 43, 42}, {49, 48, 47, 43, 42}, {46, 44, 43, 41}, {45, 43, 42, 40}, {43, 34}, {45, 44, 42}, {36}, {43, 42}, {47, 45}, {48, 43}, {46, 42}, {44}, {42}, {}, {}, {}, {}, {}, {}, {}, {}, {}];
n_opt = 150;
dur = [1, 2, 5, 3, 8, 9, 3, 9, 10, 2, 6, 10, 1, 2, 7, 5, 7, 9, 2, 3, 7, 3, 5, 10, 2, 5, 8, 1, 2, 3, 2, 4, 8, 5, 8, 10, 3, 4, 6, 3, 6, 8, 6, 7, 8, 3, 6, 7, 1, 2, 7, 1, 2, 7, 1, 5, 6, 4, 5, 6, 5, 6, 8, 5, 8, 9, 3, 4, 7, 1, 2, 4, 1, 8, 10, 1, 6, 8, 5, 6, 8, 5, 6, 8, 2, 4, 7, 1, 6, 7, 1, 9, 10, 3, 7, 8, 1, 8, 9, 3, 5, 9, 1, 4, 10, 2, 4, 8, 2, 3, 4, 1, 2, 5, 2, 4, 5, 1, 2, 3, 4, 5, 7, 1, 3, 10, 5, 6, 7, 3, 5, 10, 6, 7, 9, 1, 2, 4, 1, 5, 9, 6, 8, 9, 1, 4, 5, 2, 8, 9];
rreq = [|6, 4, 4, 9, 5, 2, 8, 8, 8, 10, 7, 5, 7, 6, 2, 8, 7, 6, 4, 4, 4, 7, 6, 4, 9, 7, 6, 8, 7, 7, 1, 1, 1, 6, 6, 6, 6, 4, 2, 7, 4, 3, 7, 4, 4, 7, 5, 4, 7, 6, 5, 9, 7, 3, 4, 2, 1, 6, 4, 3, 3, 3, 2, 2, 2, 2, 8, 8, 5, 8, 5, 4, 6, 3, 2, 6, 3, 3, 7, 7, 7, 6, 6, 4, 7, 6, 4, 5, 5, 5, 7, 3, 1, 3, 2, 2, 4, 4, 4, 5, 4, 4, 8, 7, 5, 8, 6, 4, 9, 7, 6, 3, 2, 1, 7, 3, 3, 8, 7, 5, 3, 2, 2, 6, 5, 4, 6, 6, 4, 8, 7, 7, 4, 4, 3, 9, 8, 8, 3, 3, 2, 9, 7, 5, 5, 4, 3, 9, 9, 9
 |7, 7, 7, 6, 3, 1, 3, 2, 2, 6, 6, 4, 9, 7, 2, 7, 6, 6, 8, 4, 2, 7, 6, 5, 9, 6, 5, 4, 4, 4, 7, 6, 3, 7, 5, 5, 1, 1, 1, 8, 5, 4, 8, 5, 4, 3, 2, 2, 9, 6, 2, 7, 5, 4, 5, 5, 5, 5, 5, 3, 6, 6, 6, 6, 4, 4, 9, 6, 3, 8, 5, 4, 10, 6, 4, 8, 8, 6, 7, 6, 2, 7, 6, 5, 7, 3, 3, 5, 4, 4, 2, 1, 1, 10, 6, 6, 6, 3, 2, 7, 6, 6, 8, 7, 7, 6, 5, 4, 4, 3, 3, 9, 9, 9, 3, 3, 1, 2, 2, 2, 7, 5, 5, 8, 7, 7, 6, 5, 5, 9, 5, 2, 9, 8, 4, 6, 5, 5, 8, 6, 4, 8, 5, 2, 5, 5, 5, 5, 5, 4
 |8, 5, 5, 4, 3, 2, 8, 7, 7, 8, 7, 6, 7, 5, 5, 4, 4, 4, 7, 6, 4, 2, 2, 2, 10, 9, 9, 4, 4, 2, 4, 4, 4, 3, 2, 1, 7, 4, 3, 7, 5, 5, 7, 6, 4, 8, 7, 6, 8, 5, 4, 4, 3, 2, 5, 3, 2, 4, 4, 3, 6, 5, 2, 9, 7, 5, 8, 3, 3, 8, 4, 4, 5, 3, 3, 9, 8, 6, 9, 9, 9, 7, 6, 5, 5, 5, 5, 7, 5, 3, 9, 8, 5, 9, 9, 9, 5, 4, 2, 8, 8, 6, 8, 3, 2, 3, 3, 1, 8, 7, 5, 5, 4, 3, 7, 7, 7, 9, 9, 8, 5, 5, 4, 4, 3, 3, 6, 6, 5, 9, 6, 5, 8, 6, 6, 5, 4, 4, 3, 3, 2, 6, 6, 4, 6, 6, 4, 8, 7, 7
 |9, 8, 7, 5, 5, 5, 8, 9, 8, 9, 9, 9, 6, 4, 2, 10, 8, 6, 8, 8, 7, 10, 7, 3, 9, 9, 8, 3, 1, 1, 2, 2, 1, 9, 5, 5, 10, 5, 1, 7, 6, 6, 4, 3, 2, 9, 5, 5, 3, 3, 2, 9, 6, 1, 9, 5, 3, 6, 5, 5, 8, 8, 8, 6, 4, 3, 5, 3, 2, 2, 2, 1, 5, 4, 2, 8, 8, 8, 3, 2, 2, 8, 5, 1, 3, 2, 2, 6, 4, 3, 6, 5, 1, 6, 5, 3, 7, 6, 5, 8, 8, 8, 8, 5, 4, 2, 1, 1, 7, 6, 3, 4, 3, 1, 4, 2, 2, 9, 8, 6, 5, 5, 5, 8, 8, 8, 2, 2, 2, 7, 7, 7, 2, 2, 2, 6, 5, 2, 6, 5, 4, 7, 6, 6, 7, 7, 2, 6, 3, 2|];